9 7 4 -1 5 6 -1 6 0 -1 
-1 0 -1 -1 6 0 2 7 0 -1 
2 9 5 8 7 6 9 9 1 -1 
0 1 2 -1 -1 6 0 3 -1 -1 
3 5 1 9 6 1 4 5 6 -1 
9 7 4 4 1 9 2 6 3 -1 
1 -1 6 8 4 4 9 8 9 -1 
4 2 7 6 2 7 1 0 0 -1 
0 4 -1 5 6 4 5 7 3 -1 
-1 1 3 6 9 4 -1 9 6 -1 
5 8 5 0 4 9 2 4 3 -1 
-1 9 7 5 3 4 6 1 5 -1 
5 6 9 5 4 6 3 7 7 -1 
3 0 -1 3 4 7 2 9 5 -1 
2 4 2 -1 8 8 7 3 0 -1 
